NAME : netgen18-5-10
COMMENT : Generated using the function generateClusteredNetwork from the R-package netgen (Bossek,2015) - Number of clusters: 5
TYPE : TSP
DIMENSION : 18
EDGE_WEIGHT_TYPE : EUC_2D
NODE_COORD_SECTION
1 82.470753134 48.4236176149
2 84.70812584 44.7986467614
3 71.4619879358 48.1094680699
4 70.1171125132 44.6021503985
5 80.1121403766 53.0929993904
6 75.1355654013 45.935305987
7 26.6796760635 95.4854211585
8 20.7559156603 94.0358721373
9 30.8615316087 94.7183476641
10 83.5547215603 7.6265207016
11 88.4970218477 7.7960693683
12 98.5117096486 2.3294008159
13 13.660811639 72.3749729577
14 3.2480452535 67.5434590729
15 9.0956878167 73.6569882942
16 56.9998483835 27.1576860019
17 57.3205180492 11.6281018737
18 48.36513019 20.5898348219
EOF
